1635765781
1635782100
1635851760
1635865740
1635938520
1635950280
1636025400
1636039920
1636111440
1636126860
1636370400
1636385400
1636457160
1636474680
1636543320
1636560844
1636560870
1636716300
1636734751
1636975560
1636995000
1637062140
1637076840
1637148855
1637151480
1637160759
1637235000
1637249460
1637321100
1637333400
1637580120
1637597220
1637666400
1637681760
1637752941
1637768040
1637838720
1637846520
1637925720
1637940900
1638185140
1638203340
